
 102   30
  10   10   10   10   10   10   10   10   10   10   10   10   10   10   10   10   10   10   10   10   10   10   10   10   10   10   10   10   10   10

   0   0   0   0   0   0   0   0   0   0   0   0   0   0   0   0   0   0   0   0   0   0   0   0   0   0   0   0   0   0   0  27 2 3 4 5 6 7 8 9 10 11 12 13 15 16 17 18 19 20 21 22 24 25 27 29 30 40 42 
   1   0   0   0   0   0   0   0   0   0   0   0   0   0   0   0   0   0   0   0   0   0   1   0   0   0   3   0   0   0   0  14 101 72 71 62 57 54 51 49 47 44 37 36 33 14 
   4   0   0   0   0   0   0   0   0   0   0   0   2   0   0   0   0   0   0   0   0   0   2   0   1   0   0   0   1   0   0  20 101 100 99 74 71 70 66 61 60 57 55 54 53 51 50 47 46 45 41 32 
   7   0   0   0   0   0   0   0   0   0   0   0   0   0   0   0   2   0   0   0   0   0   0   0   0   0   0   0   0   0   0  18 101 100 74 71 68 66 58 54 52 51 50 47 46 45 44 43 37 36 
   5   0   0   0   1   1   0   3   0   3   0   0   0   0   0   0   0   0   0   0   2   0   0   0   0   0   0   0   0   0   3  15 101 100 73 71 64 58 57 53 49 44 41 39 36 35 23 
   5   0   0   0   0   0   0   0   0   0   0   0   6   0   1   0   0   0   0   0   0   0   0   0   0   0   0   0   0   0   0  16 101 99 97 95 92 74 71 66 59 56 53 50 44 36 33 32 
   5   0   1   7   0   0   0   0   0   0   0   0   0   1   0   0   0   0   0   4   0   0   0   0   0   0   0   0   0   0   0  10 101 97 58 57 54 53 47 44 33 23 
   9   0   0   3   0  10   0   0   0   0   0   0   0   0   0   0   5   0   0   0   0   0   0   0   0   0   0   0   0   0   6  17 100 99 72 71 70 69 66 62 61 57 56 55 48 47 46 39 32 
   1   0   0   0   6   7   0   6   0   0   0   0   0   0   5   0   0   0   0   0   0   1   0   1   0   0   9   4   0   0   0  10 101 100 87 64 62 45 44 37 31 26 
   1   0   0   0   9   0   0   0   0   0   0   0   0   0   0   0   0   0   0   0   0   0   0   0   3   0   0   0   0   0   4  20 99 96 90 84 74 73 70 69 68 66 64 63 59 58 56 55 50 49 48 44 
   4   0   0   0   0   0   0   0   0   0   0   0   0   0   0   0   0   0   0   0   4   0   0   0   0   0   6   0   0   0   0  13 99 97 88 74 68 62 61 56 54 47 45 36 34 
   9   4   0   0   0   0   0   0   0   0   0   0   0   4   0   1   0   0   0   0   0   0   0   6   4   0   0   0   0   0   0  16 101 99 96 92 74 71 68 66 63 56 54 53 50 47 44 36 
  10   3   0   0   0   0   0   0   1   0   0   0   0   6   9   0   0   0   0   6   0   5   0   6   0   0   3   0   9   0   0  13 96 88 70 69 67 65 63 62 61 51 48 47 28 
   8   0   0   0   9   0   1   0   0   6   0   0   0   8   0   0   0   0   0   0   0   0   0   0   0   0   2   0   0   0   4  18 100 96 95 94 92 84 73 69 68 66 61 60 59 58 56 55 53 46 
   8   0   6   0   0   0   4   0   0   0   0   0   0   0   0   7   0   0   0   0   0   6   0   9   7   3   0   0   0   0   0  12 101 99 92 71 68 66 63 61 56 50 49 32 
  10   0   8   5   0   4  10   0   5   0   0   0   0   0   0   0   0   0   0   0   0   0   0   0   0   0   0   0   0   0   0  18 101 100 99 97 95 94 93 91 87 73 71 69 67 60 58 53 44 38 
   6   0   0   0   0   0   0   3   0   0   0   1   0   0   0   0   0   0   0   0   0   0   0   0   0   0   0   0   0   0   0  15 101 96 94 92 87 73 72 71 70 69 66 62 57 56 47 
   9   0   0   0   0   0   0   0   0   0   0   0   0   0   0   7   0   0   0   0   0   0   0   0   0   0   0   7   0   0   0  13 99 96 94 93 92 71 68 66 65 61 53 49 36 
   2   4   0   0   9   0   0   0   0   0   0   0   0   0   0   0   0   0   0   0   0   0   0   0   0   0   5   0   0   0   0  14 99 92 86 83 74 72 71 70 66 63 62 57 56 49 
   3   0   0   0   5   0   0   0   0   0   0   0   3   0   0   0   5   0   0   4   4   0   0   8   0   0   0   0   0   1   0  15 101 98 96 94 93 92 86 72 69 67 66 60 54 51 47 
   1   0   7   5   4   8   0   0   0   0   0   7   0   5   0   0   0   0   0   0   0   0   0   0   0   0   0   0   4   0   0  19 97 91 90 87 82 73 72 71 70 69 68 65 63 62 61 60 57 54 53 
   1  10   0   0   0   0   0   0   0   0   0   4   0   0   0   0   7   1   0  10   0   0   0   0   0   0   0   0   0   0   0  15 101 96 92 91 90 89 86 75 71 66 59 58 56 55 51 
   3   9   8   0   0   0   0   0   0   0   0   0   0   0   0   0   2   0   0   0   0   0   0   0   0   0   0   0   0   0   0  15 99 98 96 92 91 85 84 70 69 68 66 63 60 56 50 
   3   0   0   0   0   4   6   0   0   0   1   8   0   0   0   0   0   0   0   0   0   0   0   6   0   0   0   0   0   0   0  12 98 97 96 94 92 81 71 70 69 66 47 44 
   1   0   7   0   0   0   0   0   0   3   0   0   0   0   0   0   0   0   0   8   0   0   0   0   0   0   0   0   0   0  10  19 100 97 96 95 94 93 92 91 90 89 88 83 81 80 70 66 64 59 57 
   7   0   0   0   0   0   0   0  10   0   0   0   4   0   0   7  10   0   0   0   0   0   0   0   6   6   0   0   0   4   0  12 97 93 88 81 70 69 67 66 65 60 57 47 
   6   0   0   0   0   0   0   0   0   0   0   6   6   0   0   0   0   0   0   0   0   0   0   0   0   0   0   0   0   0   0  12 96 94 92 90 87 84 74 68 59 58 53 44 
  10   0   0   0   0   0   0   0   0   0   6   0   0   0   0   0   8   0   0   0   0   0   5   0   0   0   0   0   0   0   0  14 100 95 93 90 86 85 84 83 80 79 75 66 59 49 
   8   6   0   0   0   0   0   0   5   0   6   0   0   0   0   0   0   0   4   0   0   0   0   0   7   0   0   0   0   8   0  14 93 92 91 90 89 86 85 80 71 70 66 65 60 54 
   3   0   6   0   0   0   0   0   0   0   0   0   0   0   0   0   0   0   0   0   0   0   0   0   0   0   0   5   0   0   0  13 96 94 92 90 87 82 81 78 71 68 64 57 56 
   7   5   0   0   0   0   0   0   0   0   0   0   0   0   0   0   0   0   0   0   0   7   0   0   0   0   0   0   0   0   0  16 99 97 95 91 90 89 86 84 81 80 78 71 68 67 66 60 
   9   7   0   0   4   0   0   0   0  10   0   0   0   0   0   0   0   3   0   0   0   0   0   0   0   4   0   0   0   0   5  15 98 96 91 90 88 87 86 83 80 79 78 77 75 73 58 
   5   4   0   0   0   0   0   0   0   0   0   0   0   0   0   0   0   0   3   0   0   0   0   0   0   0   0   0   0   0   0  13 100 98 90 88 87 86 84 82 68 67 65 64 63 
   5   0   0   0   0   0   0   0   0   7   4   0   0   0   0   0   0   0   0   0  10   0   0   0   0   0   0   0   0   0   0  12 98 96 95 93 91 89 87 75 66 59 58 57 
   7   0   0   0   0   0   0   0   0   7   0   0   0   0   0   0   7   0   0   0   0   0   0   0   0   0   0   6   0   0   0  17 99 98 97 96 91 89 87 86 85 84 83 81 80 78 76 75 65 
   8   0   0   0   0   0   0   0   0   4   0   7   9   0   0   0   5   0   0   0   0   0   0   0   0  10   0   0   0   0   0  13 91 90 87 86 85 84 81 78 77 76 70 69 60 
   9   0   5  10   0   0   7   0   7   0   0   0   6   0   0   0   9   0   0   0   0   0   0   3   0   6   0   8   0   0   0  15 99 98 97 96 89 88 86 84 82 81 80 79 76 75 65 
   3   0   0   0   8   0   0   0   0   0   0   0   0   0   6   0   0   0   7   0   0   0   0   0   0   0   0   0   0   0   0  14 98 92 90 86 84 83 82 81 80 79 78 76 68 65 
   2   0   5   0   0   0   0   0   0   0   9   0   0   0   0   5   0   0   7   0   0   0   0   0   0   0   7   0   0   0   0  13 95 93 92 88 87 86 85 82 81 80 76 68 59 
   2   5   0   0   0   0   5   4   0   0   0   7   0   0   0   0   0   0   0   0   0   0   0   0   0   0   0   0   0   0   0  10 96 95 89 83 81 78 70 69 65 57 
   4   0   0   0   0   0   9   0   0   0   0   0   0   0   0   0   0   0   0   0   0   0   0   0   0   0   0   0   0   0   0   9 92 88 87 86 81 78 69 68 56 
   9   0   0   0   0   0   0   0   0   0   0   0   0   0   0   0   0   0   0   0   0   0   0   0   8   7   0   0   0   0   0  12 99 92 89 87 86 84 83 81 80 74 68 65 
   4   0   9   0   0   0   0  10   6   0   0   0   0   0   0   0   0   0   8   0   0   0   0   8   0   0   0   0   0   0   0  12 94 93 92 88 86 83 80 79 77 75 67 61 
   3   0   0   0   0   0   0   0   0   0   0   0   0   0   0   0   0   0   0   5   0   0   0   6   0   8   0   0   0   0   0  10 89 88 86 83 82 80 79 75 65 61 
   7   0   0   0   0   0   0   4   0   2   0   0   0   0   0   0   0   7   0   0   0   0   0   0   0   0   7   0   0   0   0  10 95 93 92 90 78 77 76 75 72 63 
   9   0   0   0   0   0   0   6   0   0   0   0   0   0   0   0   0   0   0   0   0   0   0   0   0   0   0   0   0   0   0  10 91 90 89 87 85 83 81 78 75 64 
   7   0   0   0   0   0   0   0   0   0   0   0   0   0   0   0   3   0   0   0   0   0   0  10   0   0   0   0   0   0   0   9 95 91 90 89 84 83 79 75 59 
   9   0   0   0   0   0   0   0   4   0   0   0  10   0   0   6   0   0   0   0   3   0   0   8   0   0   0   0   0   0   0   8 95 94 92 85 78 77 75 60 
   7   0   0   5   0   0   0   0   0   0   0   0   0   0   0   0   0   0   0   7   0   0   0  10   7   0   0   0   0   0   0   8 98 97 91 89 87 81 78 76 
   8   3   0   0   0   0   0   0   0   0   0   0   0   8   0   0   0   0   0   0   0   0   0   0   0   0   0   0   0   0   0   5 80 79 78 72 62 
   5   0   0   0   0   0   0   0   9   0   0   0   0   0   0   0   2   0  10   0   0   5   0   0   8   0   0   0   0   0   0   5 95 87 85 79 73 
   3   0   0   0   0   0   0   0   0   0   0   0   0   0   0   0   0   0   0   6   0   0   0   0   0   0   0   0   0   0   6   5 87 86 78 75 73 
   8   0   0   0   0   0   0   0   0   0   0   0   0   5   0   0   0   0   0   0  10   0   0   0   0   0   6   0   0   0   0   5 88 86 80 79 76 
  10   0   0   0   4   0   6   0   0   0   0   0   0   0   0   0   0   0   0   0   0   0   0   0   5   7   9   0   0   0   0   5 84 78 77 76 75 
   2   0   0   0   0   0   0   0   0   0   0   0  10   0   0   0   0   0   0   0   0   0   0   0   0   0   0   0   0   0   0   5 97 81 80 79 76 
   6   0   0   0   6   0   0   0   4   0   0   0   0   0   0   5   0   0   6   0   0   0   0   0   0   0   0   0   0   0   0   3 93 67 65 
   9   0   0   0   0   0   0   0   0   0   0   0   0   0   0   0   0   0   0   0   0   0   0   0   0   0   0   0   0   0   0   4 85 84 79 77 
   1   0   0   0   0   3   0   0   0   0   0   0   0   5   0   0   0   0   0   0   0   5   0   0   8   0   0   0   0   0   0   3 85 82 81 
   3   0   0  10   0   6   0   0   0   0   0   0   0   0   0   0   0   7   0   0   0   4   0   0   0   0   0   0   0   0   0   2 78 77 
   4   0   0   8   0   0   0   0   0   0   0   0   0   0   0   0   0   0   0   0   0   0   0   0   0   0   0   0   0   0   4   2 83 79 
   2   0   0   0   0   0   0   0   0   0   0   0   0   0   0   0   0   0   0   0   0   0   0   0   0   0   0   0   0   0   0   2 78 76 
   6   4   0   0   0   0   0  10   6   0   0   0   0   0   0   0   0   9   0   0   0   0   0   0   0   6   0   0   0   0   0   2 77 75 
  10   0   0   0   6   0   0   0   0   0   7   0   0  10   4   0   0   0   2   3   0   0   0   0   6   0   0   0   0   0   0   2 94 80 
   8   0   0   0   0   0   0   0   7   0   0   0   0   0   9   0  10   0   0   0   0   0   0   0   3   0   0   0   0   0   0   2 79 76 
   2   0   0   0   0   0   0   0   0   0   0   0   0   0   0   0   0   0   0   0   0   0   0   0   6   0   7   0   0   0   0   1 77 
   6   0   0   0   0   9   0   0   0   0   0   0   0   0   0   0   0   8   0   0   0   0   0   0   0   0   4   0   0   0   0   1 82 
   9   0   0   0   0   0   0   8   0   0   0   0   0   0   0   6   0   0  10   0   0   0   0   0   0   0   0   4   0   0   0   1 76 
   6   0   0   0   0   0   0   0   0   0   0   0   0   0   0   0   0   0   0   5   0   0   0   7   6   0   0   0   0   0   0   1 75 
   5   7   0   0   0   0   0   0   0   0   0   8   4   0   0   0   0   0   6   0   0   0   0   0   0   0   0   7   0   0   0   1 80 
   4   0   0   5   0   0   3   0   0   0   6   0   0   0   0   0   6   0   0   0   0   0   0   0   0   0   0   0   0   0   0   1 75 
   9   0   0   0   0   0   7   0   0   0   0   0   0   6   0   0   0   0   0   0   0   0   0   0   0   0   0   0   0   0   4   1 88 
   6   0   0   0   0   0   0   0  10   0   0   0   0   0   0   0   0   0   0   0   7   0   6   0   0   0   0   0   7   0   0   1 81 
  10  10   0   3   0   0   0   0   0   0   0   0   0   0   0   0   0   0   6   7   0   0   0   0   0   0   0   0   0   0   0   1 76 
   5   7   0   0   0   0   0   0   0   0   0   0   3   6   0   0   0   0   0   7   0   6   0   0   0   0   0   0   7   0   0   1 82 
   3   0   0   0   0   0   0   0   0   0   0   0   8   8   0   0   0   0   0   0   0   0   0   0   0   0  10   0   4   9   9   1 102
  10   5   0   4   0   0   0   0   0   0   0   0   0   0   0   0   0   0   0   0   0   0   0   4   0   0   0   0   0   0   0   1 102
  10   9   0   0   0   0   0   0   0   0   0   0   0   0   0   0   0   0   0   0   0   0   0   0   0   0   0   0   0   3   0   1 102
   2   0   0   0   0   0   0   0   3   8   0   0   0   0   0   0   0   0   0   0   0  10   0   0   0   4   0   0   0   0   0   1 102
   1   0   0   0   0   0   0   0   0   0   3   0   0   0   0   0   6   0   0   0   0   0   0   0   0   0   0   0   0   0   7   1 102
   6   0   0   0   0   0   0   0   4   0   0   0   0   0   4   7   0   0   0   0   0   0   0   0   0   0   0   0   0   8   0   1 102
   6   0   0   6   0   0   0   0   0   0   0   0   0   0   0   0   8   4   0   0   0   0   0   4   0   0   0   0   7   0   8   1 102
   4   0   0   0   4   6   0   0   0   0   6   0   0   0  10   0   0   0   0   0   0   8   0   0   0   3   0   0   9   0   0   1 102
  10   0   0   0   0   0   0   0   0   0   0   0   0   0   0   0   0   0   7   0   0   9   0   0   0   0   0   0   0   0   0   1 102
   5   0   0   5   0   0   4   0   0   0   0   0   0   0   0   0   0   0   0   0   0   0   6   0   0   0   0   0   0   0  10   1 102
   8   0   0   0   0   0   0   0   0   0   0   0   0   0   0   0   0   0   0   0   0   0   5   0   0   0   0   0   0   0   0   1 102
   2   0   0   0   0   0   9   0   0   0   0   0   0   0   0   0   0   7   0   0   5   0   0   0   0   0   0   0   6   6   0   1 102
   1   0   0   0   0   0   0   0   0   0   0   0   0   0   0   0   0   7   0   0   6   6   0   4   0   0   0   9   0   0   0   1 102
   5   0   0   3   0   0   9   0   0   0   0   0   0   0   0   0   0   0   0   0   0   0   7   0   0   0   0   0   0   9   0   1 102
   4   0   0   0   0   5   0   0   0   0   0   0   0   4   0   0   0   0   0   0   0   0   0   4   7   0   0   5   0   0   0   1 102
   6   0   0   7   9   0   0   0   0   0   0   0   0   0   0   0   0   0   0   0   6   0   0   6   0   0   0   0   0   6   7   1 102
   5   0   0   0   0   0   0   0   0   0   0   0   0   0   0   0   0   0   0   0   7   0  10   0   0   0   0   0   0   0   0   1 102
   8   0   0  10   0   0   0   0   7   0   0   0   0   0   0   9   0   0   0   0   8   0   9   0   0   7   0   0   0   0   0   1 102
   7   0   5   0   0   0   0   0   0   0   0   0   0   0   0   0   0   0   0   0   0   0   9   0  10   0   0  10   0   0   0   1 102
   1   0   0   0   0   0   0   0   0   0   0   0   0   0   0   0   0   0   0   0   0   0   0   0   0   0   0   0   0   0   3   1 102
   6   0   0   0   0   0   0   0   6   0   6   0   0   0   0   0   6   0   0   0   0   0   0   4   0   0   0   0   0   8   0   1 102
   3   0   5   0   0   0   0   0   0   0   9   0   0   0   6   0   0   0   2   0   0   0   0   0   0   0   0   0   0   0   0   1 102
   5   0   0   0   0   5   0   0   0  10   0   0   8   0   0   0   0   0   0   0   0   0   0   0   0   0   0   0   0   0   0   1 102
   2   0   0   0   0   0   4   0   0   0   0   0   5   8   0   0   7   0   0   0   0   0   0   0   0   0   0   0   0   4   0   1 102
   9   0   0   0   0   0   0   0   0   0   0   0   0   0   0   0   6   0   0   0   0   0   0   0   6   5   0   2   0   0   0   1 102
   3   0   0   0   0   0   0   0   0   0   9   0   0   0   0   0   0   6   0   0   0   0   0   0   0   0   0   0   0   0   0   1 102
   3   0   0   0   0  10   0   0   8   0   0   0   0   0   0   0   0   7   6   0   0   0   0   0   0   8   0   5   0   0   0   1 102
   0   0   0   0   0   0   0   0   0   0   0   0   0   0   0   0   0   0   0   0   0   0   0   0   0   0   0   0   0   0   0   0 
